38
8
0 10 11 13 17 18 22 23 25 26 27 28 30 31 32 34 35 36 37
1 8 9 11 18 19 20 22 24 25 27 28 30 32 34 35 36
2 8 11 13 14 15 18 22 25 27 29 30 36
3 12 14 15 19 31 32 33 34 35 37
4 8 11 14 16 17 27 28 29 34 35 36 37
5 9 10 14 18 21 24 28 31 33 34
6 9 10 11 29 34
7 8 11 33
